words_hard_train/5723.qaiger
aag 117 16 0 1 101
2
4
8
12
16
20
24
28
34
46
54
64
76
88
100
112
234
6 2 4
10 6 8
14 10 12
18 14 16
22 18 20
26 22 24
30 29 25
32 27 31
36 33 35
38 32 34
40 37 39
42 28 24
44 43 31
48 45 47
50 44 46
52 49 51
56 54 24
58 52 56
60 59 51
62 31 29
66 63 65
68 62 64
70 67 69
72 61 70
74 73 69
78 63 77
80 62 76
82 79 81
84 75 82
86 85 81
90 63 89
92 62 88
94 91 93
96 87 94
98 97 93
102 63 101
104 62 100
106 103 105
108 99 106
110 109 105
114 63 113
116 62 112
118 115 117
120 111 118
122 121 117
124 41 123
126 40 122
128 125 127
130 110 119
132 131 121
134 23 25
136 135 27
138 133 136
140 132 137
142 139 141
144 128 142
146 98 107
148 147 109
150 19 21
152 151 23
154 149 152
156 148 153
158 155 157
160 86 95
162 161 97
164 15 17
166 165 19
168 163 166
170 162 167
172 169 171
174 158 172
176 74 83
178 177 85
180 11 13
182 181 15
184 179 182
186 178 183
188 185 187
190 60 71
192 191 73
194 7 9
196 195 11
198 193 196
200 192 197
202 199 201
204 55 25
206 205 57
208 206 3
210 53 57
212 211 59
214 213 5
216 212 4
218 215 217
220 208 219
222 218 2
224 222 207
226 221 225
228 202 227
230 188 228
232 174 230
234 144 232
i0 2 y1[0]
i1 2 y1[1]
i2 2 y1[2]
i3 2 y1[3]
i4 2 y1[4]
i5 2 y1[5]
i6 2 y1[6]
i7 2 y1[7]
i8 1 x2[7]
i9 1 x2[1]
i10 1 x2[0]
i11 1 x2[2]
i12 1 x2[3]
i13 1 x2[4]
i14 1 x2[5]
i15 1 x2[6]
o0 bool[0]
c
simplified
  ==
    add
      2 y1
      1
    subtract
      1 x2
      >> 6
        2 y1
