words_hard_train/5723.qaiger.qdimacs
p cnf 117 304
a 32 38 44 17 50 23 56 27 0
e 1 2 3 4 5 6 7 8 9 10 11 12 13 14 15 16 18 19 20 21 22 24 25 26 28 29 30 31 33 34 35 36 37 39 40 41 42 43 45 46 47 48 49 51 52 53 54 55 57 58 59 60 61 62 63 64 65 66 67 68 69 70 71 72 73 74 75 76 77 78 79 80 81 82 83 84 85 86 87 88 89 90 91 92 93 94 95 96 97 98 99 100 101 102 103 104 105 106 107 108 109 110 111 112 113 114 115 116 117 0
-1 -2 3 0
1 -3 0
2 -3 0
-3 -4 5 0
3 -5 0
4 -5 0
-5 -6 7 0
5 -7 0
6 -7 0
-7 -8 9 0
7 -9 0
8 -9 0
-9 -10 11 0
9 -11 0
10 -11 0
-11 -12 13 0
11 -13 0
12 -13 0
14 12 15 0
-14 -15 0
-12 -15 0
13 15 16 0
-13 -16 0
-15 -16 0
16 17 18 0
-16 -18 0
-17 -18 0
-16 -17 19 0
16 -19 0
17 -19 0
18 19 20 0
-18 -20 0
-19 -20 0
-14 -12 21 0
14 -21 0
12 -21 0
21 15 22 0
-21 -22 0
-15 -22 0
22 23 24 0
-22 -24 0
-23 -24 0
-22 -23 25 0
22 -25 0
23 -25 0
24 25 26 0
-24 -26 0
-25 -26 0
-27 -12 28 0
27 -28 0
12 -28 0
-26 -28 29 0
26 -29 0
28 -29 0
29 25 30 0
-29 -30 0
-25 -30 0
15 14 31 0
-15 -31 0
-14 -31 0
31 32 33 0
-31 -33 0
-32 -33 0
-31 -32 34 0
31 -34 0
32 -34 0
33 34 35 0
-33 -35 0
-34 -35 0
30 -35 36 0
-30 -36 0
35 -36 0
36 34 37 0
-36 -37 0
-34 -37 0
31 38 39 0
-31 -39 0
-38 -39 0
-31 -38 40 0
31 -40 0
38 -40 0
39 40 41 0
-39 -41 0
-40 -41 0
37 -41 42 0
-37 -42 0
41 -42 0
42 40 43 0
-42 -43 0
-40 -43 0
31 44 45 0
-31 -45 0
-44 -45 0
-31 -44 46 0
31 -46 0
44 -46 0
45 46 47 0
-45 -47 0
-46 -47 0
43 -47 48 0
-43 -48 0
47 -48 0
48 46 49 0
-48 -49 0
-46 -49 0
31 50 51 0
-31 -51 0
-50 -51 0
-31 -50 52 0
31 -52 0
50 -52 0
51 52 53 0
-51 -53 0
-52 -53 0
49 -53 54 0
-49 -54 0
53 -54 0
54 52 55 0
-54 -55 0
-52 -55 0
31 56 57 0
-31 -57 0
-56 -57 0
-31 -56 58 0
31 -58 0
56 -58 0
57 58 59 0
-57 -59 0
-58 -59 0
55 -59 60 0
-55 -60 0
59 -60 0
60 58 61 0
-60 -61 0
-58 -61 0
20 61 62 0
-20 -62 0
-61 -62 0
-20 -61 63 0
20 -63 0
61 -63 0
62 63 64 0
-62 -64 0
-63 -64 0
-55 59 65 0
55 -65 0
-59 -65 0
65 60 66 0
-65 -66 0
-60 -66 0
11 12 67 0
-11 -67 0
-12 -67 0
67 13 68 0
-67 -68 0
-13 -68 0
66 -68 69 0
-66 -69 0
68 -69 0
-66 68 70 0
66 -70 0
-68 -70 0
69 70 71 0
-69 -71 0
-70 -71 0
-64 -71 72 0
64 -72 0
71 -72 0
-49 53 73 0
49 -73 0
-53 -73 0
73 54 74 0
-73 -74 0
-54 -74 0
9 10 75 0
-9 -75 0
-10 -75 0
75 11 76 0
-75 -76 0
-11 -76 0
74 -76 77 0
-74 -77 0
76 -77 0
-74 76 78 0
74 -78 0
-76 -78 0
77 78 79 0
-77 -79 0
-78 -79 0
-43 47 80 0
43 -80 0
-47 -80 0
80 48 81 0
-80 -81 0
-48 -81 0
7 8 82 0
-7 -82 0
-8 -82 0
82 9 83 0
-82 -83 0
-9 -83 0
81 -83 84 0
-81 -84 0
83 -84 0
-81 83 85 0
81 -85 0
-83 -85 0
84 85 86 0
-84 -86 0
-85 -86 0
-79 -86 87 0
79 -87 0
86 -87 0
-37 41 88 0
37 -88 0
-41 -88 0
88 42 89 0
-88 -89 0
-42 -89 0
5 6 90 0
-5 -90 0
-6 -90 0
90 7 91 0
-90 -91 0
-7 -91 0
89 -91 92 0
-89 -92 0
91 -92 0
-89 91 93 0
89 -93 0
-91 -93 0
92 93 94 0
-92 -94 0
-93 -94 0
-30 35 95 0
30 -95 0
-35 -95 0
95 36 96 0
-95 -96 0
-36 -96 0
3 4 97 0
-3 -97 0
-4 -97 0
97 5 98 0
-97 -98 0
-5 -98 0
96 -98 99 0
-96 -99 0
98 -99 0
-96 98 100 0
96 -100 0
-98 -100 0
99 100 101 0
-99 -101 0
-100 -101 0
27 12 102 0
-27 -102 0
-12 -102 0
102 28 103 0
-102 -103 0
-28 -103 0
-103 1 104 0
103 -104 0
-1 -104 0
26 28 105 0
-26 -105 0
-28 -105 0
105 29 106 0
-105 -106 0
-29 -106 0
106 2 107 0
-106 -107 0
-2 -107 0
-106 -2 108 0
106 -108 0
2 -108 0
107 108 109 0
-107 -109 0
-108 -109 0
-104 109 110 0
104 -110 0
-109 -110 0
-109 -1 111 0
109 -111 0
1 -111 0
-111 103 112 0
111 -112 0
-103 -112 0
110 112 113 0
-110 -113 0
-112 -113 0
-101 113 114 0
101 -114 0
-113 -114 0
-94 -114 115 0
94 -115 0
114 -115 0
-87 -115 116 0
87 -116 0
115 -116 0
-72 -116 117 0
72 -117 0
116 -117 0
117 0
